NAME : ATSP_between_chains.7637160.tour
COMMENT : Length = 7637160
COMMENT : Found by LKH [Keld Helsgaun] Thu Mar  7 18:33:13 2019
TYPE : TOUR
DIMENSION : 89
TOUR_SECTION
1
2
55
46
45
60
4
6
29
11
16
12
41
52
28
53
36
32
21
22
25
26
5
19
39
13
50
17
18
44
24
35
14
34
23
57
48
47
58
72
75
77
67
71
85
82
87
86
79
81
78
80
76
73
74
65
64
66
68
63
69
70
62
61
59
56
49
20
3
83
88
84
89
27
33
40
30
10
31
8
51
42
9
43
15
37
38
54
7
-1
EOF
